\ LP format - for model browsing. Use MPS format to capture full model detail.
Maximize
  47 z1 + 22.15384615384615 z2 + 41 z3 + 13 z4 + 25.3076923076923 z5
   + 22.15384615384616 z6 + 19 z7 + 9.84615384615384 z8 + 18 z9
   + 31.23076923076923 z10 + 13 z11 + 44.53846153846154 z12
   + 18.92307692307692 z13 + 31.23076923076923 z14 + 41 z15
   + 35.46153846153845 z16 + 34.3846153846154 z17 + 40.3846153846154 z18
   + 43.92307692307693 z19 + 37.92307692307693 z20
Subject To
 constraint1: 47 z1 + 24 z2 + 41 z3 + 14 z4 + 26 z5 + 23 z6 + 19 z7 + 11 z8
   + 18 z9 + 33 z10 + 13 z11 + 46 z12 + 20 z13 + 32 z14 + 41 z15 + 39 z16
   + 36 z17 + 41 z18 + 48 z19 + 40 z20 <= 200
 constraints2_3_&_11: z3 - z11 = 0
 constraints2_11_&_19: z11 - z19 = 0
 constraints3_1_|_6: z1 + z6 <= 1
 constraints3_1_|_9: z1 + z9 <= 1
 constraints3_1_|_12: z1 + z12 <= 1
 constraints3_1_|_14: z1 + z14 <= 1
 constraints3_1_|_15: z1 + z15 <= 1
 constraints3_3_|_6: z3 + z6 <= 1
 constraints3_3_|_7: z3 + z7 <= 1
 constraints3_3_|_12: z3 + z12 <= 1
 constraints3_3_|_18: z3 + z18 <= 1
 constraints3_4_|_5: z4 + z5 <= 1
 constraints3_5_|_15: z5 + z15 <= 1
 constraints3_6_|_9: z6 + z9 <= 1
 constraints3_6_|_11: z6 + z11 <= 1
 constraints3_7_|_16: z7 + z16 <= 1
 constraints3_7_|_18: z7 + z18 <= 1
 constraints3_8_|_20: z8 + z20 <= 1
 constraints3_9_|_14: z9 + z14 <= 1
 constraints3_9_|_17: z9 + z17 <= 1
 constraints3_11_|_18: z11 + z18 <= 1
 constraints3_12_|_15: z12 + z15 <= 1
 constraints3_14_|_15: z14 + z15 <= 1
 constraints3_18_|_20: z18 + z20 <= 1
Bounds
Binaries
 z1 z2 z3 z4 z5 z6 z7 z8 z9 z10 z11 z12 z13 z14 z15 z16 z17 z18 z19 z20
End
